
******************************************************************************
This program contains Ipopt, a library for large-scale nonlinear optimization.
 Ipopt is released as open source code under the Eclipse Public License (EPL).
         For more information visit http://projects.coin-or.org/Ipopt
******************************************************************************

This is Ipopt version 3.12.6, running with linear solver ma57.

Number of nonzeros in equality constraint Jacobian...:   313750
Number of nonzeros in inequality constraint Jacobian.:        0
Number of nonzeros in Lagrangian Hessian.............:    66300

Total number of variables............................:     2550
                     variables with only lower bounds:        0
                variables with lower and upper bounds:        0
                     variables with only upper bounds:        0
Total number of equality constraints.................:     2550
Total number of inequality constraints...............:        0
        inequality constraints with only lower bounds:        0
   inequality constraints with lower and upper bounds:        0
        inequality constraints with only upper bounds:        0

iter    objective    inf_pr   inf_du lg(mu)  ||d||  lg(rg) alpha_du alpha_pr  ls
   0  0.0000000e+00 1.00e+00 0.00e+00  -1.0 0.00e+00    -  0.00e+00 0.00e+00   0
Reallocating memory for MA57: lfact (56013357)
   1  0.0000000e+00 5.00e-01 1.33e+08  -1.7 1.00e+00  -2.0 1.00e+00 1.00e+00h  1
   2  0.0000000e+00 4.82e-01 1.71e+08  -1.7 2.53e-02   9.8 1.00e+00 1.00e+00h  1
   3  0.0000000e+00 4.27e-01 1.12e+08  -1.7 4.75e-02   9.4 1.00e+00 1.00e+00h  1
   4  0.0000000e+00 3.92e-01 9.47e+07  -1.7 1.05e-01   8.9 1.00e+00 1.00e+00H  1
   5  0.0000000e+00 3.91e-01 1.04e+08  -1.7 5.00e-02   9.3 1.00e+00 1.00e+00s 22
   6  0.0000000e+00 3.84e-01 1.18e+08  -1.7 1.69e-01   8.8 1.00e+00 1.00e+00s 22
   7  0.0000000e+00 3.74e-01 1.24e+08  -1.7 6.72e-02   9.3 1.00e+00 1.00e+00s 22
   8  0.0000000e+00 3.66e-01 1.76e+08  -1.7 2.85e-01   8.8 1.00e+00 1.00e+00s 22
   9  0.0000000e+00 3.55e-01 1.69e+08  -1.7 1.03e-01   9.2 1.00e+00 1.00e+00s 22
iter    objective    inf_pr   inf_du lg(mu)  ||d||  lg(rg) alpha_du alpha_pr  ls
  10r 0.0000000e+00 3.55e-01 9.99e+02  -0.4 0.00e+00   8.7 0.00e+00 0.00e+00R  1
  11r 0.0000000e+00 9.48e-01 9.96e+02  -0.4 1.47e+02    -  1.28e-02 3.78e-03f  1
  12r 0.0000000e+00 9.22e-01 9.82e+02  -0.4 5.14e+00   2.0 1.02e-01 2.11e-02f  1
  13r 0.0000000e+00 8.51e-01 9.47e+02  -0.4 1.84e+00   2.4 1.00e+00 8.51e-02f  1
  14r 0.0000000e+00 8.03e-01 8.97e+02  -0.4 9.86e+00   1.9 2.86e-01 3.74e-02f  1
  15r 0.0000000e+00 7.74e-01 8.62e+02  -0.4 1.60e+00   2.4 1.00e+00 3.50e-02f  1
  16r 0.0000000e+00 1.13e+00 7.55e+02  -0.4 1.77e+00   1.9 3.84e-01 2.31e-01f  1
  17r 0.0000000e+00 8.74e-01 5.58e+02  -0.4 1.06e+00   2.3 2.08e-01 2.86e-01f  1
  18r 0.0000000e+00 8.58e-01 6.35e+02  -0.4 4.25e-01   2.7 1.00e+00 1.85e-02f  1
  19r 0.0000000e+00 4.99e-01 3.84e+02  -0.4 3.61e-01   2.3 1.76e-01 6.77e-01f  1
iter    objective    inf_pr   inf_du lg(mu)  ||d||  lg(rg) alpha_du alpha_pr  ls
  20r 0.0000000e+00 5.00e-01 2.59e+01  -0.4 1.72e-01   1.8 1.00e+00 1.00e+00f  1
  21r 0.0000000e+00 5.00e-01 3.78e+00  -0.4 2.22e-02   2.2 1.00e+00 1.00e+00h  1
  22r 0.0000000e+00 5.00e-01 1.60e+01  -1.8 5.18e-03   1.7 1.00e+00 9.01e-01f  1
  23r 0.0000000e+00 5.00e-01 2.67e+02  -1.8 1.19e-03   2.2 7.15e-01 1.00e+00f  1
  24r 0.0000000e+00 5.00e-01 2.49e+02  -1.8 2.40e-03   2.6 3.93e-01 6.77e-01f  1
  25r 0.0000000e+00 5.00e-01 1.36e+02  -1.8 1.03e-03   3.0 7.02e-01 1.00e+00f  1
  26r 0.0000000e+00 5.00e-01 8.04e-01  -1.8 2.29e-03   2.5 1.00e+00 1.00e+00h  1

Number of Iterations....: 26

                                   (scaled)                 (unscaled)
Objective...............:   0.0000000000000000e+00    0.0000000000000000e+00
Dual infeasibility......:   8.3295600383399016e-01    8.3295600383399016e-01
Constraint violation....:   4.9997975291461344e-01    4.9997975291461344e-01
Complementarity.........:   0.0000000000000000e+00    0.0000000000000000e+00
Overall NLP error.......:   4.9997975291461344e-01    8.3295600383399016e-01


Number of objective function evaluations             = 51
Number of objective gradient evaluations             = 12
Number of equality constraint evaluations            = 51
Number of inequality constraint evaluations          = 0
Number of equality constraint Jacobian evaluations   = 28
Number of inequality constraint Jacobian evaluations = 0
Number of Lagrangian Hessian evaluations             = 26
Total CPU secs in IPOPT (w/o function evaluations)   =    300.573
Total CPU secs in NLP function evaluations           =      0.983

EXIT: Maximum CPU time exceeded.
Note: The following floating-point exceptions are signalling: IEEE_UNDERFLOW_FLAG IEEE_DENORMAL

************************ CUTEst statistics ************************


 Package used            :  IPOPT
 Problem                 :  EIGENB    
 # variables             =            2550
 # constraints           =            2550
 # objective functions   =        0.6400000E+02
 # objective gradients   =        0.1300000E+02
 # objective Hessians    =        0.2600000E+02
 # Hessian-vector prdct  =        0.0000000E+00
 # constraints functions =        0.8100000E+02
 # constraints gradients =        0.3000000E+02
 # constraints Hessians  =        0.2600000E+02
 Exit code               =              -4
 Final f                 =   0.0000000E+00
 Set up time             =            0.87 seconds
 Solve time              =          434.95 seconds


******************************************************************

System Time =     146.9660034180 s.
